(set-option :produce-models true)
(set-logic QF_UF)
(declare-fun p0() Bool)
(declare-fun p4() Bool)
(declare-fun p7() Bool)
(declare-fun p3() Bool)
(declare-fun p11() Bool)
(declare-fun p2() Bool)
(declare-fun p8() Bool)
(declare-fun p1() Bool)
(declare-fun p19() Bool)
(declare-fun p9() Bool)
(declare-fun p15() Bool)
(declare-fun p6() Bool)
(declare-fun p10() Bool)
(declare-fun p14() Bool)
(declare-fun p16() Bool)
(declare-fun p13() Bool)
(declare-fun p12() Bool)
(declare-fun p18() Bool)
(declare-fun p5() Bool)
(declare-fun p17() Bool)
(assert
(and (or p0 (not p4) p7) (or p3 p11 (not p2)) (or p8 p1 p19) (or p9 (not p15) p6) (or (not p10) (not p14) p11) (or (not p16) p10 p13) (or (not p12) p19 p6) (or p11 (not p16) (not p9)) (or p4 p8 (not p7)) (or (not p18) p14 p8) (or (not p1) (not p19) p13) (or (not p8) (not p12) (not p15)) (or p5 (not p7) p6) (or p17 (not p15) (not p10)) (or p5 (not p19) (not p7)) (or p12 p19 (not p1)) (or p6 p15 (not p1)) (or (not p5) p11 (not p14)) (or p17 p18 (not p14)) (or (not p6) p7 p3) (or (not p5) p17 (not p2)) (or p6 p18 (not p11)) (or p1 p12 (not p9)) (or (not p0) (not p18) (not p12)) (or (not p9) p5 (not p15)) (or (not p4) (not p10) (not p8)) (or (not p16) (not p10) p11) (or p9 p5 p1) (or (not p7) (not p12) (not p5)) (or (not p0) p10 p4) (or (not p16) p6 p14) (or (not p8) (not p13) p9) (or (not p15) p19 p19) (or p9 (not p0) p4) (or (not p7) p5 (not p8)) (or (not p3) p2 (not p17)) (or (not p1) p4 (not p8)) (or (not p18) p7 (not p4)) (or (not p18) p13 p17) (or (not p1) p1 (not p12)) (or p3 p13 p18) (or p13 (not p11) (not p4)) (or (not p7) (not p9) p2) (or (not p1) (not p1) (not p13)) (or p1 (not p14) (not p19)) (or p18 p5 p8) (or p4 p3 (not p14)) (or (not p12) p3 p17) (or (not p12) p10 (not p17)) (or p19 (not p14) p10) (or p19 (not p18) (not p8)) (or p0 p19 p13) (or p19 p10 (not p2)) (or p11 p11 (not p12)) (or (not p5) (not p14) (not p16)) (or (not p10) p15 (not p16)) (or (not p0) (not p8) p11) (or (not p14) p13 (not p17)) (or p14 (not p17) (not p7)) (or p13 p2 p19) (or p19 p0 (not p4)) (or p3 p3 (not p11)) (or p13 p8 (not p10)) (or p12 (not p13) p9) (or (not p10) (not p13) (not p18)) (or (not p17) (not p1) p16) (or (not p14) p7 (not p2)) (or (not p19) (not p18) p6) (or p5 p3 p7) (or (not p5) p11 p18) (or (not p14) p5 (not p16)) (or p15 (not p14) (not p4)) (or p0 p4 p9) (or (not p2) (not p18) (not p13)) (or (not p16) (not p0) p15) (or p11 (not p1) p17) (or (not p0) p17 (not p18)) (or p15 (not p8) p10) (or p19 (not p13) p15) (or p3 p2 (not p0)) (or p19 p19 (not p9)) (or p9 (not p8) (not p10)) (or p3 (not p5) p1) (or (not p4) (not p18) (not p3)) (or (not p8) (not p3) p12) (or (not p3) p10 (not p18)) (or (not p4) (not p17) p1))
)
(check-sat)
(get-model)
